p tw 288 1024
1 33
2 34
3 35
4 36
5 37
6 38
7 39
8 40
9 41
10 42
11 43
12 44
13 45
14 46
15 47
16 48
17 49
18 50
19 51
20 52
21 53
22 54
23 55
24 56
25 57
26 58
27 59
28 60
29 61
30 62
31 63
32 64
33 117
33 118
33 119
33 120
33 121
34 90
34 97
34 135
34 158
34 160
35 75
35 103
35 104
35 105
35 106
36 68
36 107
36 111
36 112
36 113
37 88
37 117
37 129
37 132
37 133
38 66
38 88
38 89
38 90
38 91
39 112
39 127
39 140
39 154
39 157
40 93
40 130
40 143
40 151
40 153
41 99
41 103
41 114
41 115
41 116
42 79
42 80
42 81
42 82
42 83
43 70
43 75
43 76
43 77
43 78
44 70
44 71
44 72
44 73
44 74
45 86
45 120
45 124
45 145
45 148
46 79
46 92
46 93
46 94
46 95
47 76
47 105
47 118
47 138
47 139
48 82
48 100
48 129
48 130
48 131
49 73
49 138
49 145
49 146
49 147
50 125
50 142
50 146
50 151
50 152
51 94
51 149
51 154
51 155
51 156
52 80
52 99
52 100
52 101
52 102
53 65
53 66
53 67
53 68
53 69
54 85
54 92
54 114
54 134
54 137
55 81
55 84
55 122
55 127
55 128
56 77
56 96
56 132
56 149
56 150
57 67
57 71
57 96
57 97
57 98
58 104
58 108
58 134
58 135
58 136
59 122
59 123
59 124
59 125
59 126
60 89
60 101
60 111
60 140
60 141
61 109
61 115
61 155
61 158
61 159
62 119
62 123
62 142
62 143
62 144
63 65
63 84
63 85
63 86
63 87
64 72
64 107
64 108
64 109
64 110
65 66
65 67
65 68
65 69
65 84
65 85
65 86
65 87
66 67
66 68
66 69
66 88
66 89
66 90
66 91
67 68
67 69
67 71
67 96
67 97
67 98
68 69
68 107
68 111
68 112
68 113
69 161
69 162
69 163
69 164
69 165
70 71
70 72
70 73
70 74
70 75
70 76
70 77
70 78
71 72
71 73
71 74
71 96
71 97
71 98
72 73
72 74
72 107
72 108
72 109
72 110
73 74
73 138
73 145
73 146
73 147
74 166
74 167
74 168
74 169
74 170
75 76
75 77
75 78
75 103
75 104
75 105
75 106
76 77
76 78
76 105
76 118
76 138
76 139
77 78
77 96
77 132
77 149
77 150
78 166
78 171
78 172
78 173
78 174
79 80
79 81
79 82
79 83
79 92
79 93
79 94
79 95
80 81
80 82
80 83
80 99
80 100
80 101
80 102
81 82
81 83
81 84
81 122
81 127
81 128
82 83
82 100
82 129
82 130
82 131
83 175
83 176
83 177
83 178
83 179
84 85
84 86
84 87
84 122
84 127
84 128
85 86
85 87
85 92
85 114
85 134
85 137
86 87
86 120
86 124
86 145
86 148
87 161
87 180
87 181
87 182
87 183
88 89
88 90
88 91
88 117
88 129
88 132
88 133
89 90
89 91
89 101
89 111
89 140
89 141
90 91
90 97
90 135
90 158
90 160
91 162
91 184
91 185
91 186
91 187
92 93
92 94
92 95
92 114
92 134
92 137
93 94
93 95
93 130
93 143
93 151
93 153
94 95
94 149
94 154
94 155
94 156
95 175
95 188
95 189
95 190
95 191
96 97
96 98
96 132
96 149
96 150
97 98
97 135
97 158
97 160
98 163
98 167
98 192
98 193
98 194
99 100
99 101
99 102
99 103
99 114
99 115
99 116
100 101
100 102
100 129
100 130
100 131
101 102
101 111
101 140
101 141
102 176
102 195
102 196
102 197
102 198
103 104
103 105
103 106
103 114
103 115
103 116
104 105
104 106
104 108
104 134
104 135
104 136
105 106
105 118
105 138
105 139
106 171
106 199
106 200
106 201
106 202
107 108
107 109
107 110
107 111
107 112
107 113
108 109
108 110
108 134
108 135
108 136
109 110
109 115
109 155
109 158
109 159
110 168
110 203
110 204
110 205
110 206
111 112
111 113
111 140
111 141
112 113
112 127
112 140
112 154
112 157
113 164
113 203
113 207
113 208
113 209
114 115
114 116
114 134
114 137
115 116
115 155
115 158
115 159
116 195
116 199
116 210
116 211
116 212
117 118
117 119
117 120
117 121
117 129
117 132
117 133
118 119
118 120
118 121
118 138
118 139
119 120
119 121
119 123
119 142
119 143
119 144
120 121
120 124
120 145
120 148
121 213
121 214
121 215
121 216
121 217
122 123
122 124
122 125
122 126
122 127
122 128
123 124
123 125
123 126
123 142
123 143
123 144
124 125
124 126
124 145
124 148
125 126
125 142
125 146
125 151
125 152
126 218
126 219
126 220
126 221
126 222
127 128
127 140
127 154
127 157
128 177
128 180
128 218
128 223
128 224
129 130
129 131
129 132
129 133
130 131
130 143
130 151
130 153
131 178
131 196
131 225
131 226
131 227
132 133
132 149
132 150
133 184
133 213
133 225
133 228
133 229
134 135
134 136
134 137
135 136
135 158
135 160
136 200
136 204
136 230
136 231
136 232
137 181
137 188
137 210
137 230
137 233
138 139
138 145
138 146
138 147
139 172
139 201
139 214
139 234
139 235
140 141
140 154
140 157
141 185
141 197
141 207
141 236
141 237
142 143
142 144
142 146
142 151
142 152
143 144
143 151
143 153
144 215
144 219
144 238
144 239
144 240
145 146
145 147
145 148
146 147
146 151
146 152
147 169
147 234
147 241
147 242
147 243
148 182
148 216
148 220
148 241
148 244
149 150
149 154
149 155
149 156
150 173
150 192
150 228
150 245
150 246
151 152
151 153
152 221
152 238
152 242
152 247
152 248
153 189
153 226
153 239
153 247
153 249
154 155
154 156
154 157
155 156
155 158
155 159
156 190
156 245
156 250
156 251
156 252
157 208
157 223
157 236
157 250
157 253
158 159
158 160
159 205
159 211
159 251
159 254
159 255
160 186
160 193
160 231
160 254
160 256
161 162
161 163
161 164
161 165
161 180
161 181
161 182
161 183
162 163
162 164
162 165
162 184
162 185
162 186
162 187
163 164
163 165
163 167
163 192
163 193
163 194
164 165
164 203
164 207
164 208
164 209
165 268
166 167
166 168
166 169
166 170
166 171
166 172
166 173
166 174
167 168
167 169
167 170
167 192
167 193
167 194
168 169
168 170
168 203
168 204
168 205
168 206
169 170
169 234
169 241
169 242
169 243
170 277
171 172
171 173
171 174
171 199
171 200
171 201
171 202
172 173
172 174
172 201
172 214
172 234
172 235
173 174
173 192
173 228
173 245
173 246
174 278
175 176
175 177
175 178
175 179
175 188
175 189
175 190
175 191
176 177
176 178
176 179
176 195
176 196
176 197
176 198
177 178
177 179
177 180
177 218
177 223
177 224
178 179
178 196
178 225
178 226
178 227
179 279
180 181
180 182
180 183
180 218
180 223
180 224
181 182
181 183
181 188
181 210
181 230
181 233
182 183
182 216
182 220
182 241
182 244
183 258
184 185
184 186
184 187
184 213
184 225
184 228
184 229
185 186
185 187
185 197
185 207
185 236
185 237
186 187
186 193
186 231
186 254
186 256
187 283
188 189
188 190
188 191
188 210
188 230
188 233
189 190
189 191
189 226
189 239
189 247
189 249
190 191
190 245
190 250
190 251
190 252
191 275
192 193
192 194
192 228
192 245
192 246
193 194
193 231
193 254
193 256
194 264
195 196
195 197
195 198
195 199
195 210
195 211
195 212
196 197
196 198
196 225
196 226
196 227
197 198
197 207
197 236
197 237
198 269
199 200
199 201
199 202
199 210
199 211
199 212
200 201
200 202
200 204
200 230
200 231
200 232
201 202
201 214
201 234
201 235
202 286
203 204
203 205
203 206
203 207
203 208
203 209
204 205
204 206
204 230
204 231
204 232
205 206
205 211
205 251
205 254
205 255
206 257
207 208
207 209
207 236
207 237
208 209
208 223
208 236
208 250
208 253
209 285
210 211
210 212
210 230
210 233
211 212
211 251
211 254
211 255
212 280
213 214
213 215
213 216
213 217
213 225
213 228
213 229
214 215
214 216
214 217
214 234
214 235
215 216
215 217
215 219
215 238
215 239
215 240
216 217
216 220
216 241
216 244
217 288
218 219
218 220
218 221
218 222
218 223
218 224
219 220
219 221
219 222
219 238
219 239
219 240
220 221
220 222
220 241
220 244
221 222
221 238
221 242
221 247
221 248
222 262
223 224
223 236
223 250
223 253
224 266
225 226
225 227
225 228
225 229
226 227
226 239
226 247
226 249
227 273
228 229
228 245
228 246
229 284
230 231
230 232
230 233
231 232
231 254
231 256
232 263
233 267
234 235
234 241
234 242
234 243
235 274
236 237
236 250
236 253
237 261
238 239
238 240
238 242
238 247
238 248
239 240
239 247
239 249
240 259
241 242
241 243
241 244
242 243
242 247
242 248
243 272
244 276
245 246
245 250
245 251
245 252
246 265
247 248
247 249
248 271
249 281
250 251
250 252
250 253
251 252
251 254
251 255
252 270
253 282
254 255
254 256
255 260
256 287
